
Gurobi 7.5.2 (linux64) logging started Sat Jul  7 16:02:39 2018

Changed value of parameter LogFile to result/ilp/simNo_10-n_100-m_40-s_4-minVAF_0.05-cov_10000-k_2-fn_0.25-fp_0.0001-na_0.15.ILP.gurobiSolverLog
   Prev: gurobi.log  Default: 
Changed value of parameter TimeLimit to 86400.0
   Prev: 1e+100  Min: 0.0  Max: 1e+100  Default: 1e+100
Optimize a model with 639293 rows, 10765 columns and 1940420 nonzeros
Variable types: 0 continuous, 10765 integer (10765 binary)
Coefficient statistics:
  Matrix range     [2e-05, 4e+00]
  Objective range  [1e+00, 2e+01]
  Bounds range     [1e+00, 1e+00]
  RHS range        [3e-01, 2e+00]
Found heuristic solution: objective -14082.83072
Presolve removed 124248 rows and 922 columns (presolve time = 5s) ...
Presolve removed 124285 rows and 922 columns (presolve time = 10s) ...
Presolve removed 124762 rows and 922 columns (presolve time = 15s) ...
Presolve removed 172462 rows and 1399 columns (presolve time = 22s) ...
Presolve removed 172462 rows and 1399 columns
Presolve time: 22.80s
Presolved: 466831 rows, 9366 columns, 1404918 nonzeros
Variable types: 0 continuous, 9366 integer (9366 binary)
Presolved: 9366 rows, 476197 columns, 1414284 nonzeros

Presolve removed 9366 rows and 476197 columns

Root simplex log...

Iteration    Objective       Primal Inf.    Dual Inf.      Time
       0    3.8766491e+01   0.000000e+00   7.506000e+04     28s
   13410   -2.3830609e+02   0.000000e+00   1.068397e+05     30s
   30447   -3.0196178e+02   0.000000e+00   3.023791e+05     35s
   44363   -3.3830390e+02   0.000000e+00   3.128920e+05     40s
   58299   -3.6300586e+02   0.000000e+00   8.478450e+04     45s
   71211   -3.9013304e+02   0.000000e+00   5.226944e+04     50s
   83864   -4.1148612e+02   0.000000e+00   0.000000e+00     55s
   83864   -4.1148612e+02   0.000000e+00   0.000000e+00     56s

Root relaxation: objective -4.114861e+02, 83864 iterations, 31.52 seconds
Total elapsed time = 126.04s
Total elapsed time = 165.37s

    Nodes    |    Current Node    |     Objective Bounds      |     Work
 Expl Unexpl |  Obj  Depth IntInf | Incumbent    BestBd   Gap | It/Node Time

     0     0 -411.48612    0 1819 -14082.831 -411.48612  97.1%     -  199s
H    0     0                    -1722.373195 -411.48612  76.1%     -  204s
H    0     0                    -947.7255986 -411.48612  56.6%     -  204s
H    0     0                    -516.7796002 -411.48612  20.4%     -  205s
     0     0 -417.90787    0 1820 -516.77960 -417.90787  19.1%     -  489s
H    0     0                    -508.5564483 -417.90787  17.8%     -  505s
     0     0 -417.90787    0 1845 -508.55645 -417.90787  17.8%     -  508s
     0     0 -422.58911    0 1568 -508.55645 -422.58911  16.9%     - 1496s
H    0     0                    -503.8575044 -422.58911  16.1%     - 1502s
     0     0 -422.87933    0 1561 -503.85750 -422.87933  16.1%     - 1523s
     0     0 -422.92862    0 1558 -503.85750 -422.92862  16.1%     - 1539s
     0     0 -422.98283    0 1556 -503.85750 -422.98283  16.1%     - 1551s
     0     0 -425.50941    0 1813 -503.85750 -425.50941  15.5%     - 1969s
H    0     0                    -499.1585605 -425.50941  14.8%     - 1983s
     0     0 -425.59235    0 1803 -499.15856 -425.59235  14.7%     - 2010s
     0     0 -425.73832    0 1760 -499.15856 -425.73832  14.7%     - 2062s
     0     0 -425.73832    0 1760 -499.15856 -425.73832  14.7%     - 2068s
     0     0 -428.82866    0 1547 -499.15856 -428.82866  14.1%     - 3706s
     0     0 -429.29202    0 2378 -499.15856 -429.29202  14.0%     - 4131s
     0     0 -429.30175    0 1538 -499.15856 -429.30175  14.0%     - 4145s
     0     0 -429.33911    0 1795 -499.15856 -429.33911  14.0%     - 4178s
     0     0 -429.36989    0 1802 -499.15856 -429.36989  14.0%     - 4199s
     0     0 -429.37044    0 1803 -499.15856 -429.37044  14.0%     - 4205s
     0     0 -430.26575    0 1701 -499.15856 -430.26575  13.8%     - 4302s
     0     0 -430.82371    0 1705 -499.15856 -430.82371  13.7%     - 4671s
     0     0 -430.82371    0 1705 -499.15856 -430.82371  13.7%     - 4677s
     0     0 -432.59413    0 1773 -499.15856 -432.59413  13.3%     - 22314s
     0     0 -432.59413    0 1792 -499.15856 -432.59413  13.3%     - 22347s
     0     0 -433.28845    0 1788 -499.15856 -433.28845  13.2%     - 22748s
     0     0 -433.29616    0 1790 -499.15856 -433.29616  13.2%     - 22763s
     0     0 -433.31895    0 1787 -499.15856 -433.31895  13.2%     - 22797s
     0     0 -433.31895    0 1785 -499.15856 -433.31895  13.2%     - 22803s
     0     0 -434.88527    0 1796 -499.15856 -434.88527  12.9%     - 36471s
     0     0 -435.03549    0 1790 -499.15856 -435.03549  12.8%     - 36500s
     0     0 -435.03549    0 1790 -499.15856 -435.03549  12.8%     - 36503s
     0     0 -436.53261    0 1834 -499.15856 -436.53261  12.5%     - 38283s
     0     0 -436.94128    0 2344 -499.15856 -436.94128  12.5%     - 38406s
     0     0 -436.95273    0 1838 -499.15856 -436.95273  12.5%     - 38415s
     0     0 -436.96569    0 1833 -499.15856 -436.96569  12.5%     - 38424s
     0     0 -436.98051    0 1833 -499.15856 -436.98051  12.5%     - 38431s
     0     0 -436.98405    0 1838 -499.15856 -436.98405  12.5%     - 38434s
     0     0 -436.98405    0 1837 -499.15856 -436.98405  12.5%     - 38436s
     0     0 -439.69395    0 1832 -499.15856 -439.69395  11.9%     - 41630s
     0     0 -440.39756    0 1839 -499.15856 -440.39756  11.8%     - 41817s
     0     0 -440.43115    0 1841 -499.15856 -440.43115  11.8%     - 41844s
     0     0 -440.43115    0 1844 -499.15856 -440.43115  11.8%     - 41847s
     0     0 -441.47191    0 1845 -499.15856 -441.47191  11.6%     - 42445s
H    0     0                    -498.0103411 -441.47191  11.4%     - 42478s
     0     0 -441.57664    0 1853 -498.01034 -441.57664  11.3%     - 42523s
     0     0 -441.59504    0 1851 -498.01034 -441.59504  11.3%     - 42536s
     0     0 -441.59941    0 1854 -498.01034 -441.59941  11.3%     - 42545s
     0     0 -441.61014    0 1854 -498.01034 -441.61014  11.3%     - 42577s
     0     0 -441.61203    0 1853 -498.01034 -441.61203  11.3%     - 42582s
     0     0 -443.44131    0 1803 -498.01034 -443.44131  11.0%     - 43402s
H    0     0                    -496.8356052 -443.44131  10.7%     - 43432s
     0     0 -443.47800    0 1803 -496.83561 -443.47800  10.7%     - 43444s
     0     0 -443.47840    0 1809 -496.83561 -443.47840  10.7%     - 43451s
     0     0 -445.54540    0 1784 -496.83561 -445.54540  10.3%     - 46502s
     0     0 -445.64887    0 1808 -496.83561 -445.64887  10.3%     - 46660s
     0     0 -445.66234    0 1809 -496.83561 -445.66234  10.3%     - 46669s
     0     0 -445.66234    0 1808 -496.83561 -445.66234  10.3%     - 46671s
     0     0 -446.51164    0 1789 -496.83561 -446.51164  10.1%     - 47409s
     0     0 -446.91806    0 1799 -496.83561 -446.91806  10.0%     - 48106s
     0     0 -446.92710    0 1801 -496.83561 -446.92710  10.0%     - 48115s
     0     0 -446.92840    0 1810 -496.83561 -446.92840  10.0%     - 48120s
     0     0 -447.78388    0 1862 -496.83561 -447.78388  9.87%     - 50644s
     0     0 -447.83804    0 1853 -496.83561 -447.83804  9.86%     - 50688s
     0     0 -447.85320    0 1861 -496.83561 -447.85320  9.86%     - 50698s
     0     0 -447.85737    0 1863 -496.83561 -447.85737  9.86%     - 50706s
     0     0 -447.85831    0 1862 -496.83561 -447.85831  9.86%     - 50711s
     0     0 -448.27697    0 1857 -496.83561 -448.27697  9.77%     - 50757s
H    0     0                    -493.3113972 -448.27697  9.13%     - 50804s
     0     0 -448.48841    0 1867 -493.31140 -448.48841  9.09%     - 51321s
     0     0 -448.48841    0 1862 -493.31140 -448.48841  9.09%     - 51333s
     0     0 -449.03364    0 1797 -493.31140 -449.03364  8.98%     - 60848s
     0     0 -449.62350    0 1853 -493.31140 -449.62350  8.86%     - 62626s
     0     0 -449.92572    0 1866 -493.31140 -449.92572  8.79%     - 71606s
     0     0 -449.93227    0 1861 -493.31140 -449.93227  8.79%     - 71622s
     0     0 -449.93238    0 1863 -493.31140 -449.93238  8.79%     - 71629s
     0     0 -451.03753    0 1864 -493.31140 -451.03753  8.57%     - 75731s
     0     0 -451.42923    0 1857 -493.31140 -451.42923  8.49%     - 76126s
     0     0 -451.53418    0 1853 -493.31140 -451.53418  8.47%     - 76796s
     0     0 -451.53418    0 1856 -493.31140 -451.53418  8.47%     - 76810s
     0     0          -    0      -493.31140 -451.53418  8.47%     - 86400s

Cutting planes:
  Gomory: 4
  Zero half: 315

Explored 1 nodes (2457608 simplex iterations) in 86400.21 seconds
Thread count was 1 (of 80 available processors)

Solution count 10: -493.311 -496.836 -498.01 ... -14082.8

Time limit reached
Best objective -4.933113972033e+02, best bound -4.515341779473e+02, gap 8.4687%
